12° run output:
{
    "Function": "kroA300.tsp",
    "Problem dimension": [
        53,
        108,
        49,
        89,
        124,
        12,
        285,
        299,
        233,
        3,
        105,
        162,
        144,
        185,
        129,
        5,
        13,
        256,
        117,
        15,
        59,
        261,
        11,
        196,
        100,
        236,
        33,
        154,
        106,
        127,
        225,
        263,
        73,
        110,
        158,
        146,
        14,
        267,
        133,
        37,
        104,
        266,
        255,
        214,
        70,
        151,
        42,
        161,
        176,
        249,
        30,
        130,
        174,
        197,
        149,
        240,
        269,
        283,
        58,
        252,
        28,
        166,
        40,
        115,
        35,
        287,
        31,
        202,
        95,
        131,
        134,
        6,
        120,
        171,
        45,
        286,
        230,
        65,
        93,
        143,
        163,
        29,
        186,
        67,
        155,
        119,
        232,
        61,
        277,
        190,
        57,
        20,
        92,
        189,
        103,
        280,
        168,
        172,
        292,
        152,
        91,
        265,
        177,
        229,
        295,
        23,
        212,
        83,
        43,
        109,
        80,
        167,
        54,
        138,
        39,
        114,
        17,
        284,
        137,
        159,
        297,
        238,
        55,
        82,
        26,
        48,
        262,
        101,
        157,
        41,
        243,
        193,
        77,
        86,
        141,
        142,
        24,
        150,
        179,
        237,
        18,
        148,
        275,
        200,
        125,
        102,
        235,
        271,
        75,
        195,
        228,
        216,
        180,
        264,
        0,
        27,
        136,
        139,
        209,
        10,
        251,
        246,
        96,
        234,
        68,
        211,
        111,
        32,
        107,
        2,
        192,
        204,
        135,
        84,
        218,
        98,
        191,
        272,
        88,
        132,
        147,
        126,
        19,
        64,
        122,
        239,
        97,
        50,
        205,
        248,
        79,
        217,
        199,
        276,
        140,
        270,
        123,
        206,
        181,
        221,
        215,
        8,
        241,
        21,
        208,
        253,
        1,
        112,
        38,
        113,
        227,
        291,
        118,
        183,
        213,
        222,
        72,
        145,
        278,
        182,
        46,
        220,
        47,
        36,
        94,
        85,
        69,
        279,
        173,
        281,
        293,
        74,
        76,
        153,
        52,
        81,
        51,
        164,
        188,
        273,
        282,
        242,
        4,
        194,
        254,
        290,
        16,
        66,
        156,
        62,
        178,
        44,
        245,
        258,
        187,
        298,
        203,
        296,
        56,
        259,
        169,
        289,
        34,
        288,
        184,
        7,
        63,
        268,
        231,
        78,
        247,
        160,
        226,
        294,
        175,
        87,
        71,
        210,
        223,
        128,
        170,
        257,
        201,
        99,
        121,
        60,
        25,
        116,
        244,
        274,
        9,
        198,
        165,
        207,
        260,
        90,
        219,
        250,
        22,
        224
    ],
    "Global Optimum": 0,
    "Algorithm": "Genetic algorithm",
    "Parameters": {
        "population": 30,
        "offspring": 30,
        "mutation probability": 0.0033333333333333335,
        "crossover probability": 0.9
    },
    "Fitness": 306628,
    "Solution": [
        53,
        108,
        49,
        89,
        124,
        12,
        285,
        299,
        233,
        3,
        105,
        162,
        144,
        185,
        129,
        5,
        13,
        256,
        117,
        15,
        59,
        261,
        11,
        196,
        100,
        236,
        33,
        154,
        106,
        127,
        225,
        263,
        73,
        110,
        158,
        146,
        14,
        267,
        133,
        37,
        104,
        266,
        255,
        214,
        70,
        151,
        42,
        161,
        176,
        249,
        30,
        130,
        174,
        197,
        149,
        240,
        269,
        283,
        58,
        252,
        28,
        166,
        40,
        115,
        35,
        287,
        31,
        202,
        95,
        131,
        134,
        6,
        120,
        171,
        45,
        286,
        230,
        65,
        93,
        143,
        163,
        29,
        186,
        67,
        155,
        119,
        232,
        61,
        277,
        190,
        57,
        20,
        92,
        189,
        103,
        280,
        168,
        172,
        292,
        152,
        91,
        265,
        177,
        229,
        295,
        23,
        212,
        83,
        43,
        109,
        80,
        167,
        54,
        138,
        39,
        114,
        17,
        284,
        137,
        159,
        297,
        238,
        55,
        82,
        26,
        48,
        262,
        101,
        157,
        41,
        243,
        193,
        77,
        86,
        141,
        142,
        24,
        150,
        179,
        237,
        18,
        148,
        275,
        200,
        125,
        102,
        235,
        271,
        75,
        195,
        228,
        216,
        180,
        264,
        0,
        27,
        136,
        139,
        209,
        10,
        251,
        246,
        96,
        234,
        68,
        211,
        111,
        32,
        107,
        2,
        192,
        204,
        135,
        84,
        218,
        98,
        191,
        272,
        88,
        132,
        147,
        126,
        19,
        64,
        122,
        239,
        97,
        50,
        205,
        248,
        79,
        217,
        199,
        276,
        140,
        270,
        123,
        206,
        181,
        221,
        215,
        8,
        241,
        21,
        208,
        253,
        1,
        112,
        38,
        113,
        227,
        291,
        118,
        183,
        213,
        222,
        72,
        145,
        278,
        182,
        46,
        220,
        47,
        36,
        94,
        85,
        69,
        279,
        173,
        281,
        293,
        74,
        76,
        153,
        52,
        81,
        51,
        164,
        188,
        273,
        282,
        242,
        4,
        194,
        254,
        290,
        16,
        66,
        156,
        62,
        178,
        44,
        245,
        258,
        187,
        298,
        203,
        296,
        56,
        259,
        169,
        289,
        34,
        288,
        184,
        7,
        63,
        268,
        231,
        78,
        247,
        160,
        226,
        294,
        175,
        87,
        71,
        210,
        223,
        128,
        170,
        257,
        201,
        99,
        121,
        60,
        25,
        116,
        244,
        274,
        9,
        198,
        165,
        207,
        260,
        90,
        219,
        250,
        22,
        224
    ],
    "Nb of functions evaluations": 200010,
    "Computational time in seconds": 321.1043758392334,
    "Stopping criterion in evaluations": 200000
}